# Solution for model GasLib-40
# Objective value = 2.9959847124199683e+01
loadshed[innode_1] 0
loadshed[innode_2] 0
loadshed[innode_3] 0
loadshed[innode_4] 0
loadshed[innode_5] 0
loadshed[innode_6] 0
loadshed[innode_7] 0
loadshed[innode_8] 0
loadshed[source_1] -1.9419568981311053e-01
loadshed[source_2] 1.7641793880701651e-01
loadshed[source_3] 2.0728875411970649e-01
loadshed[sink_1] 0
loadshed[sink_2] 0
loadshed[sink_3] 0
loadshed[sink_4] 0
loadshed[sink_5] 0
loadshed[sink_6] 0
loadshed[sink_7] 0
loadshed[sink_8] 0
loadshed[sink_9] 0
loadshed[sink_10] 0
loadshed[sink_11] 0
loadshed[sink_12] 1
loadshed[sink_13] 0
loadshed[sink_14] 0
loadshed[sink_15] 0
loadshed[sink_16] 0
loadshed[sink_17] 0
loadshed[sink_18] 0
loadshed[sink_19] 0
loadshed[sink_20] 0
loadshed[sink_21] 8.3193969676634982e-01
loadshed[sink_22] 0
loadshed[sink_23] 0
loadshed[sink_24] 0
loadshed[sink_25] 0
loadshed[sink_26] 0
loadshed[sink_27] 0
loadshed[sink_28] 0
loadshed[sink_29] 0
flow[source_1,sink_3] 1.8879072832357957e+02
flow[innode_1,sink_16] 1.6354166666666970e+01
flow[innode_6,sink_13] -1.0840774392116479e+01
flow[sink_13,sink_14] -2.7194941058783147e+01
flow[sink_14,sink_10] -4.3549107725449815e+01
flow[sink_25,sink_26] 2.1535265287580063e+02
flow[sink_26,sink_9] 8.1770833333333655e+01
flow[sink_9,sink_18] 6.5416666666666671e+01
flow[sink_26,sink_4] 1.1722765287580032e+02
flow[sink_4,sink_20] 2.8442379227862489e+01
flow[sink_18,sink_6] 4.9062500000000313e+01
flow[sink_25,innode_8] -1.5608239499024322e+02
flow[sink_6,sink_7] 0
flow[sink_6,sink_22] 3.2708333333333641e+01
flow[sink_7,sink_24] 1.9102652875800306e+01
flow[sink_22,sink_1] 1.6354166666666970e+01
flow[sink_24,sink_21] 2.7484862091336542e+00
flow[sink_21,sink_12] 0
flow[sink_7,sink_5] -3.5456819542466974e+01
flow[sink_5,sink_17] -5.1810986209133645e+01
flow[sink_17,sink_4] -7.2431106981271142e+01
flow[sink_17,sink_8] 4.2659541054708079e+00
flow[sink_3,sink_23] 16.3541666666697
flow[sink_8,sink_20] -1.2088212561195860e+01
flow[sink_25,sink_20] 0
flow[sink_25,sink_15] -6.4783650160108053e+01
flow[sink_15,sink_29] -9.7491983493458974e+01
flow[sink_29,sink_28] 1.6354166666667879e+01
flow[sink_29,sink_2] 0
flow[sink_2,sink_15] -1.6354166666684250e+01
flow[sink_29,innode_7] -1.3020031682679354e+02
flow[innode_4,sink_19] 4.8833502226925475e+01
flow[sink_19,innode_3] 4.5194073656635972e+01
flow[innode_4,innode_5] 7.6486438831858422e+01
flow[sink_27,innode_5] -7.6486438831858422e+01
flow[sink_27,sink_19] 6.0132272165191750e+01
flow[sink_10,sink_11] 3.2708333333333641e+01
flow[sink_10,innode_2] -4.7417534068814149e+01
flow[sink_10,innode_3] -4.5194073656635972e+01
flow[innode_6,sink_25] 1.0840774392116479e+01
flow[sink_11,innode_1] 1.6354166666666970e+01
flow[sink_19,innode_2] 4.7417534068814149e+01
flow[source_3,innode_4] 1.2531994105878390e+02
flow[source_2,innode_7] 1.3020031682679354e+02
flow[sink_3,innode_8] 1.5608239499024322e+02
pressure[innode_1] 7.6376966572344287e+01
pressure[innode_2] 7.9034880396314392e+01
pressure[innode_3] 7.8934803237875428e+01
pressure[innode_4] 81.01325
pressure[innode_5] 8.0960638594229039e+01
pressure[innode_6] 7.4360425192755955e+01
pressure[innode_7] 81.01325
pressure[innode_8] 8.0382194715886584e+01
pressure[source_1] 81.01325
pressure[source_2] 81.01325
pressure[source_3] 81.01325
pressure[sink_1] 4.8520906486755862e+01
pressure[sink_2] 7.4621296272869273e+01
pressure[sink_3] 8.0382194715886584e+01
pressure[sink_4] 4.4288637134973726e+01
pressure[sink_5] 3.7661015088326472e+01
pressure[sink_6] 5.0621984097143240e+01
pressure[sink_7] 2.2914801113352841e+01
pressure[sink_8] 4.1359593529266462e+01
pressure[sink_9] 5.4299068900601526e+01
pressure[sink_10] 7.6528667879947832e+01
pressure[sink_11] 7.6376966572344287e+01
pressure[sink_12] 1.01325
pressure[sink_13] 7.4420188570317990e+01
pressure[sink_14] 7.4468856233839446e+01
pressure[sink_15] 7.4674689022635718e+01
pressure[sink_16] 75.3553167375266
pressure[sink_17] 4.1520559060342123e+01
pressure[sink_18] 5.1932098925402869e+01
pressure[sink_19] 7.9034880396314392e+01
pressure[sink_20] 4.2201971944972158e+01
pressure[sink_21] 1.01325
pressure[sink_22] 4.9584675629110876e+01
pressure[sink_23] 80.2174767042268
pressure[sink_24] 1.0436869311179129e+00
pressure[sink_25] 7.4360425192755955e+01
pressure[sink_26] 5.9193264320312878e+01
pressure[sink_27] 8.0325942483667021e+01
pressure[sink_28] 7.7235619310421257e+01
pressure[sink_29] 7.7530901584038432e+01
interdiction[source_1,sink_3] 0
interdiction[innode_1,sink_16] 0
interdiction[innode_6,sink_13] 0
interdiction[sink_13,sink_14] 0
interdiction[sink_14,sink_10] 0
interdiction[sink_25,sink_26] 0
interdiction[sink_26,sink_9] 0
interdiction[sink_9,sink_18] 0
interdiction[sink_26,sink_4] 0
interdiction[sink_4,sink_20] 0
interdiction[sink_18,sink_6] 0
interdiction[sink_25,innode_8] 0
interdiction[sink_6,sink_7] 1
interdiction[sink_6,sink_22] 0
interdiction[sink_7,sink_24] 0
interdiction[sink_22,sink_1] 0
interdiction[sink_24,sink_21] 0
interdiction[sink_21,sink_12] 0
interdiction[sink_7,sink_5] 0
interdiction[sink_5,sink_17] 0
interdiction[sink_17,sink_4] 0
interdiction[sink_17,sink_8] 0
interdiction[sink_3,sink_23] 0
interdiction[sink_8,sink_20] 0
interdiction[sink_25,sink_20] 1
interdiction[sink_25,sink_15] 0
interdiction[sink_15,sink_29] 0
interdiction[sink_29,sink_28] 0
interdiction[sink_29,sink_2] 1
interdiction[sink_2,sink_15] 0
interdiction[sink_29,innode_7] 0
interdiction[innode_4,sink_19] 0
interdiction[sink_19,innode_3] 0
interdiction[innode_4,innode_5] 0
interdiction[sink_27,innode_5] 0
interdiction[sink_27,sink_19] 0
interdiction[sink_10,sink_11] 0
interdiction[sink_10,innode_2] 0
interdiction[sink_10,innode_3] 0
interdiction[innode_6,sink_25] 0
interdiction[sink_11,innode_1] 0
interdiction[sink_19,innode_2] 0
interdiction[source_3,innode_4] 0
interdiction[source_2,innode_7] 0
interdiction[sink_3,innode_8] 0
WCcheckFlow[source_1,sink_3] 39
WCcheckFlow[innode_1,sink_16] 1
WCcheckFlow[innode_6,sink_13] 13
WCcheckFlow[sink_13,sink_14] 12
WCcheckFlow[sink_14,sink_10] 11
WCcheckFlow[sink_25,sink_26] 15
WCcheckFlow[sink_26,sink_9] 5
WCcheckFlow[sink_9,sink_18] 4
WCcheckFlow[sink_26,sink_4] 9
WCcheckFlow[sink_4,sink_20] 1
WCcheckFlow[sink_18,sink_6] 3
WCcheckFlow[sink_25,innode_8] -36
WCcheckFlow[sink_6,sink_7] 0
WCcheckFlow[sink_6,sink_22] 2
WCcheckFlow[sink_7,sink_24] 3
WCcheckFlow[sink_22,sink_1] 1
WCcheckFlow[sink_24,sink_21] 2
WCcheckFlow[sink_21,sink_12] 1
WCcheckFlow[sink_7,sink_5] -4
WCcheckFlow[sink_5,sink_17] -5
WCcheckFlow[sink_17,sink_4] -7
WCcheckFlow[sink_17,sink_8] 1
WCcheckFlow[sink_3,sink_23] 1
WCcheckFlow[sink_8,sink_20] 0
WCcheckFlow[sink_25,sink_20] 0
WCcheckFlow[sink_25,sink_15] 6
WCcheckFlow[sink_15,sink_29] 4
WCcheckFlow[sink_29,sink_28] 1
WCcheckFlow[sink_29,sink_2] 0
WCcheckFlow[sink_2,sink_15] -1
WCcheckFlow[sink_29,innode_7] 2
WCcheckFlow[innode_4,sink_19] -4
WCcheckFlow[sink_19,innode_3] -5
WCcheckFlow[innode_4,innode_5] 2
WCcheckFlow[sink_27,innode_5] -1
WCcheckFlow[sink_27,sink_19] 0
WCcheckFlow[sink_10,sink_11] 3
WCcheckFlow[sink_10,innode_2] 1
WCcheckFlow[sink_10,innode_3] 6
WCcheckFlow[innode_6,sink_25] -14
WCcheckFlow[sink_11,innode_1] 2
WCcheckFlow[sink_19,innode_2] 0
WCcheckFlow[source_3,innode_4] -1
WCcheckFlow[source_2,innode_7] -1
WCcheckFlow[sink_3,innode_8] 37
